solution status: optimal solution found
objective value:                   0.0705109100585418
x                                 0.00952634379989356 	(obj:0.75)
y                                  0.0382650345928685 	(obj:0.5)
z                                   0.294890899414582 	(obj:0.15)
